(set-info :source |printed by MathSAT|)
(declare-fun |!{$(in_main#0)<element>}| () Int)
(declare-fun |!{$(in_main#0)<element>}.next| () Int)
(declare-fun |!{$(in_main#0)<found>}| () Int)
(declare-fun |!{$(in_main#0)<found>}.next| () Int)
(declare-fun |!{$(in_main#0)<i>}| () Int)
(declare-fun |!{$(in_main#0)<i>}.next| () Int)
(declare-fun |!{$(in_main#0)<n>}| () Int)
(declare-fun |!{$(in_main#0)<n>}.next| () Int)
(declare-fun |!{$(in_main#0)<pos>}| () Int)
(declare-fun |!{$(in_main#0)<pos>}.next| () Int)
(declare-fun |!{$(in_main#0)<x>}| () Int)
(declare-fun |!{$(in_main#0)<x>}.next| () Int)
(declare-fun |!{$(in_main#0)<vectorx.1>}| () (Array Int Int))
(declare-fun |!{$(in_main#0)<vectorx.1>}.next| () (Array Int Int))
(declare-fun |!{$(in_main#0)<$(in___VERIFIER_nondet_int#0)<h#<__VERIFIER_nondet_int.return>>>}| () Int)
(declare-fun |!{$(in_main#0)<$(in___VERIFIER_nondet_int#1)<h#<__VERIFIER_nondet_int.return>>>}| () Int)
(declare-fun !pc () Int)
(declare-fun !pc.next () Int)
(declare-fun |%{$(in_main#0)<pos>}#1| () Int)
(declare-fun |%{$(in_main#0)<x>}#1| () Int)
(declare-fun |%{$(in_main#0)<vectorx.1>}#1| () (Array Int Int))
(declare-fun |%{$(in_main#0)<found>}#2| () Int)
(declare-fun |%{$(in_main#0)<pos>}#2| () Int)
(define-fun .def_37 () Int (! !pc :next !pc.next))
(define-fun .def_40 () Bool (! (= .def_37 2) :init true))
(define-fun .def_238 () Bool (= .def_37 32))
(define-fun .def_218 () Bool (= !pc.next 53))
(define-fun .def_241 () Bool (and .def_218 .def_238))
(define-fun .def_10 () Int (! |!{$(in_main#0)<found>}| :next |!{$(in_main#0)<found>}.next|))
(define-fun .def_85 () Bool (= .def_10 |!{$(in_main#0)<found>}.next|))
(define-fun .def_8 () Int (! |!{$(in_main#0)<element>}| :next |!{$(in_main#0)<element>}.next|))
(define-fun .def_83 () Bool (= .def_8 |!{$(in_main#0)<element>}.next|))
(define-fun .def_98 () Bool (and .def_83 .def_85))
(define-fun .def_58 () Bool (= |!{$(in_main#0)<i>}.next| 0))
(define-fun .def_232 () Bool (and .def_58 .def_98))
(define-fun .def_14 () Int (! |!{$(in_main#0)<n>}| :next |!{$(in_main#0)<n>}.next|))
(define-fun .def_89 () Bool (= .def_14 |!{$(in_main#0)<n>}.next|))
(define-fun .def_233 () Bool (and .def_89 .def_232))
(define-fun .def_16 () Int (! |!{$(in_main#0)<pos>}| :next |!{$(in_main#0)<pos>}.next|))
(define-fun .def_91 () Bool (= .def_16 |!{$(in_main#0)<pos>}.next|))
(define-fun .def_234 () Bool (and .def_91 .def_233))
(define-fun .def_18 () Int (! |!{$(in_main#0)<x>}| :next |!{$(in_main#0)<x>}.next|))
(define-fun .def_93 () Bool (= .def_18 |!{$(in_main#0)<x>}.next|))
(define-fun .def_235 () Bool (and .def_93 .def_234))
(define-fun .def_20 () (Array Int Int) (! |!{$(in_main#0)<vectorx.1>}| :next |!{$(in_main#0)<vectorx.1>}.next|))
(define-fun .def_95 () Bool (= .def_20 |!{$(in_main#0)<vectorx.1>}.next|))
(define-fun .def_236 () Bool (and .def_95 .def_235))
(define-fun .def_12 () Int (! |!{$(in_main#0)<i>}| :next |!{$(in_main#0)<i>}.next|))
(define-fun .def_171 () Bool (<= .def_14 .def_12))
(define-fun .def_237 () Bool (and .def_171 .def_236))
(define-fun .def_242 () Bool (and .def_237 .def_241))
(define-fun .def_69 () Bool (= !pc.next 32))
(define-fun .def_239 () Bool (and .def_69 .def_238))
(define-fun .def_228 () (Array Int Int) (store .def_20 .def_12 |!{$(in_main#0)<$(in___VERIFIER_nondet_int#1)<h#<__VERIFIER_nondet_int.return>>>}|))
(define-fun .def_229 () Bool (= |!{$(in_main#0)<vectorx.1>}.next| .def_228))
(define-fun .def_142 () Int (* (- 1) |!{$(in_main#0)<i>}.next|))
(define-fun .def_143 () Int (+ .def_12 .def_142))
(define-fun .def_144 () Bool (= .def_143 (- 1)))
(define-fun .def_145 () Bool (and .def_98 .def_144))
(define-fun .def_146 () Bool (and .def_89 .def_145))
(define-fun .def_147 () Bool (and .def_91 .def_146))
(define-fun .def_148 () Bool (and .def_93 .def_147))
(define-fun .def_230 () Bool (and .def_148 .def_229))
(define-fun .def_172 () Bool (not .def_171))
(define-fun .def_231 () Bool (and .def_172 .def_230))
(define-fun .def_240 () Bool (and .def_231 .def_239))
(define-fun .def_243 () Bool (or .def_240 .def_242))
(define-fun .def_217 () Bool (= .def_37 53))
(define-fun .def_119 () Bool (= !pc.next 108))
(define-fun .def_224 () Bool (and .def_119 .def_217))
(define-fun .def_152 () Bool (= |!{$(in_main#0)<x>}.next| 0))
(define-fun .def_87 () Bool (= .def_12 |!{$(in_main#0)<i>}.next|))
(define-fun .def_99 () Bool (and .def_87 .def_98))
(define-fun .def_100 () Bool (and .def_89 .def_99))
(define-fun .def_101 () Bool (and .def_91 .def_100))
(define-fun .def_153 () Bool (and .def_101 .def_152))
(define-fun .def_154 () Bool (and .def_95 .def_153))
(define-fun .def_138 () Bool (= .def_10 0))
(define-fun .def_139 () Bool (not .def_138))
(define-fun .def_155 () Bool (and .def_139 .def_154))
(define-fun .def_214 () Bool (and .def_138 .def_155))
(define-fun .def_173 () Bool (and .def_138 .def_172))
(define-fun .def_193 () Bool (not .def_173))
(define-fun .def_215 () Bool (and .def_193 .def_214))
(define-fun .def_225 () Bool (and .def_215 .def_224))
(define-fun .def_161 () Bool (= !pc.next 85))
(define-fun .def_221 () Bool (and .def_161 .def_217))
(define-fun .def_206 () Bool (= |!{$(in_main#0)<i>}.next| .def_16))
(define-fun .def_207 () Bool (and .def_98 .def_206))
(define-fun .def_208 () Bool (and .def_89 .def_207))
(define-fun .def_209 () Bool (and .def_91 .def_208))
(define-fun .def_210 () Bool (and .def_93 .def_209))
(define-fun .def_211 () Bool (and .def_95 .def_210))
(define-fun .def_212 () Bool (and .def_139 .def_211))
(define-fun .def_213 () Bool (and .def_193 .def_212))
(define-fun .def_222 () Bool (and .def_213 .def_221))
(define-fun .def_219 () Bool (and .def_217 .def_218))
(define-fun .def_200 () Bool (= |!{$(in_main#0)<pos>}.next| |%{$(in_main#0)<pos>}#2|))
(define-fun .def_196 () Bool (= |!{$(in_main#0)<found>}.next| |%{$(in_main#0)<found>}#2|))
(define-fun .def_197 () Bool (and .def_83 .def_196))
(define-fun .def_198 () Bool (and .def_144 .def_197))
(define-fun .def_199 () Bool (and .def_89 .def_198))
(define-fun .def_201 () Bool (and .def_199 .def_200))
(define-fun .def_202 () Bool (and .def_93 .def_201))
(define-fun .def_203 () Bool (and .def_95 .def_202))
(define-fun .def_188 () Bool (= .def_12 |%{$(in_main#0)<pos>}#2|))
(define-fun .def_182 () Bool (= |%{$(in_main#0)<found>}#2| 1))
(define-fun .def_174 () Int (select .def_20 .def_12))
(define-fun .def_175 () Bool (= .def_8 .def_174))
(define-fun .def_184 () Bool (and .def_175 .def_182))
(define-fun .def_190 () Bool (and .def_184 .def_188))
(define-fun .def_187 () Bool (= .def_16 |%{$(in_main#0)<pos>}#2|))
(define-fun .def_181 () Bool (= .def_10 |%{$(in_main#0)<found>}#2|))
(define-fun .def_176 () Bool (not .def_175))
(define-fun .def_183 () Bool (and .def_176 .def_181))
(define-fun .def_189 () Bool (and .def_183 .def_187))
(define-fun .def_191 () Bool (or .def_189 .def_190))
(define-fun .def_204 () Bool (and .def_191 .def_203))
(define-fun .def_205 () Bool (and .def_173 .def_204))
(define-fun .def_220 () Bool (and .def_205 .def_219))
(define-fun .def_223 () Bool (or .def_220 .def_222))
(define-fun .def_226 () Bool (or .def_223 .def_225))
(define-fun .def_160 () Bool (= .def_37 85))
(define-fun .def_123 () Bool (= !pc.next 0))
(define-fun .def_167 () Bool (and .def_123 .def_160))
(define-fun .def_110 () Bool (and .def_93 .def_101))
(define-fun .def_111 () Bool (and .def_95 .def_110))
(define-fun .def_157 () Bool (and .def_111 .def_138))
(define-fun .def_131 () Int (* (- 1) .def_14))
(define-fun .def_132 () Int (+ .def_12 .def_131))
(define-fun .def_133 () Bool (<= (- 1) .def_132))
(define-fun .def_158 () Bool (and .def_133 .def_157))
(define-fun .def_168 () Bool (and .def_158 .def_167))
(define-fun .def_164 () Bool (and .def_119 .def_160))
(define-fun .def_156 () Bool (and .def_133 .def_155))
(define-fun .def_165 () Bool (and .def_156 .def_164))
(define-fun .def_162 () Bool (and .def_160 .def_161))
(define-fun .def_135 () Int (+ .def_12 1))
(define-fun .def_136 () Int (select .def_20 .def_135))
(define-fun .def_137 () (Array Int Int) (store .def_20 .def_12 .def_136))
(define-fun .def_149 () Bool (= |!{$(in_main#0)<vectorx.1>}.next| .def_137))
(define-fun .def_150 () Bool (and .def_148 .def_149))
(define-fun .def_134 () Bool (not .def_133))
(define-fun .def_151 () Bool (and .def_134 .def_150))
(define-fun .def_163 () Bool (and .def_151 .def_162))
(define-fun .def_166 () Bool (or .def_163 .def_165))
(define-fun .def_169 () Bool (or .def_166 .def_168))
(define-fun .def_114 () Bool (= .def_37 108))
(define-fun .def_124 () Bool (and .def_114 .def_123))
(define-fun .def_72 () Bool (<= .def_16 .def_18))
(define-fun .def_112 () Bool (and .def_72 .def_111))
(define-fun .def_125 () Bool (and .def_112 .def_124))
(define-fun .def_120 () Bool (and .def_114 .def_119))
(define-fun .def_103 () Int (* (- 1) |!{$(in_main#0)<x>}.next|))
(define-fun .def_104 () Int (+ .def_18 .def_103))
(define-fun .def_105 () Bool (= .def_104 (- 1)))
(define-fun .def_106 () Bool (and .def_101 .def_105))
(define-fun .def_107 () Bool (and .def_95 .def_106))
(define-fun .def_74 () Int (select .def_20 .def_18))
(define-fun .def_75 () Bool (= .def_8 .def_74))
(define-fun .def_76 () Bool (not .def_75))
(define-fun .def_77 () Int (ite .def_76 1 0))
(define-fun .def_78 () Bool (= .def_77 0))
(define-fun .def_79 () Bool (not .def_78))
(define-fun .def_108 () Bool (and .def_79 .def_107))
(define-fun .def_73 () Bool (not .def_72))
(define-fun .def_109 () Bool (and .def_73 .def_108))
(define-fun .def_121 () Bool (and .def_109 .def_120))
(define-fun .def_116 () Bool (= !pc.next 128))
(define-fun .def_117 () Bool (and .def_114 .def_116))
(define-fun .def_84 () Bool (and .def_78 .def_83))
(define-fun .def_86 () Bool (and .def_84 .def_85))
(define-fun .def_88 () Bool (and .def_86 .def_87))
(define-fun .def_90 () Bool (and .def_88 .def_89))
(define-fun .def_92 () Bool (and .def_90 .def_91))
(define-fun .def_94 () Bool (and .def_92 .def_93))
(define-fun .def_96 () Bool (and .def_94 .def_95))
(define-fun .def_97 () Bool (and .def_73 .def_96))
(define-fun .def_118 () Bool (and .def_97 .def_117))
(define-fun .def_122 () Bool (or .def_118 .def_121))
(define-fun .def_126 () Bool (or .def_122 .def_125))
(define-fun .def_70 () Bool (and .def_40 .def_69))
(define-fun .def_66 () Bool (= |!{$(in_main#0)<vectorx.1>}.next| |%{$(in_main#0)<vectorx.1>}#1|))
(define-fun .def_64 () Bool (= |!{$(in_main#0)<x>}.next| |%{$(in_main#0)<x>}#1|))
(define-fun .def_62 () Bool (= |!{$(in_main#0)<pos>}.next| |%{$(in_main#0)<pos>}#1|))
(define-fun .def_60 () Bool (= |!{$(in_main#0)<n>}.next| 100000))
(define-fun .def_56 () Bool (= |!{$(in_main#0)<found>}.next| 0))
(define-fun .def_55 () Bool (= |!{$(in_main#0)<element>}.next| |!{$(in_main#0)<$(in___VERIFIER_nondet_int#0)<h#<__VERIFIER_nondet_int.return>>>}|))
(define-fun .def_57 () Bool (and .def_55 .def_56))
(define-fun .def_59 () Bool (and .def_57 .def_58))
(define-fun .def_61 () Bool (and .def_59 .def_60))
(define-fun .def_63 () Bool (and .def_61 .def_62))
(define-fun .def_65 () Bool (and .def_63 .def_64))
(define-fun .def_67 () Bool (and .def_65 .def_66))
(define-fun .def_71 () Bool (and .def_67 .def_70))
(define-fun .def_127 () Bool (or .def_71 .def_126))
(define-fun .def_170 () Bool (or .def_127 .def_169))
(define-fun .def_227 () Bool (or .def_170 .def_226))
(define-fun .def_244 () Bool (! (or .def_227 .def_243) :trans true))
(define-fun .def_128 () Bool (= .def_37 128))
(define-fun .def_245 () Bool (! (not .def_128) :invar-property 0 :invar-property-name ||))
(assert true)
